c 
c MolecularSimulation 0.9.3
c Simulation written: Jan 13 2012 -- 15:17:57
c Test: Distribution
c Input: ./data/testCNF/SWEEP_R3_K3_N20_M48_S002.cnf
c 
s SATISFIABLE
v 1 2 3 -4 5 -6 7 -8 -9 -10 -11 -12 -13 14 15 16 -17 -18 19 0
c algorithmTime:  897
c solutionMemory: 3786
c mixCount:       141
c extractCount:   0
c appendCount:    16770621
c splitCount:     141
c spliceCount:    7882630
c purifyCount:    47
c 
